NAME : random_8
COMMENT : 50 random nodes
TYPE : TSP
DIMENSION : 50
EDGE_WEIGHT_TYPE : EUC_2D
NODE_COORD_SECTION
1 859 26
2 41 517
3 80 27
4 136 222
5 833 556
6 204 531
7 313 839
8 86 817
9 763 569
10 556 685
11 558 710
12 38 766
13 782 296
14 890 774
15 873 539
16 711 193
17 942 832
18 451 556
19 808 179
20 12 400
21 232 64
22 814 36
23 798 373
24 675 953
25 321 638
26 410 826
27 175 588
28 595 8
29 74 96
30 614 32
31 374 311
32 533 962
33 353 267
34 427 218
35 799 891
36 171 736
37 129 163
38 348 293
39 891 520
40 27 614
41 562 892
42 48 994
43 99 561
44 378 637
45 916 477
46 786 387
47 902 872
48 353 198
49 577 757
50 226 906
EOF